39 39
29
3 3 33 36
3 4 36 35
3 5 36 30
3 6 36 24
3 7 36 17
3 8 36 9
3 9 36 0
3 10 33 26
3 11 33 15
3 15 33 0
4 3 29 36
4 4 29 32
4 5 29 27
4 6 29 21
4 8 25 31
4 9 29 12
4 12 29 0
4 15 25 16
4 16 25 0
5 3 20 36
5 4 20 32
5 5 20 27
5 6 20 21
5 8 15 31
5 10 20 11
5 11 20 0
5 13 15 18
5 18 15 0
15 39 0 0
